
 102   30
  10   10   10   10   10   10   10   10   10   10   10   10   10   10   10   10   10   10   10   10   10   10   10   10   10   10   10   10   10   10

   0   0   0   0   0   0   0   0   0   0   0   0   0   0   0   0   0   0   0   0   0   0   0   0   0   0   0   0   0   0   0  26 2 3 4 5 6 7 9 10 11 12 13 14 15 16 17 19 21 22 25 26 28 29 30 32 34 37 
   3   0   0   0   0   0   0   0   0   0   0   0   0   0   0   0   4   0   0   3   0   0   0   0   0   0   0   0   0   0   1  10 68 48 45 44 41 39 38 36 27 8 
   5   0   0   0   2   3   0   0   0   0   0   0   0   0   0   0   0   0   0   5   0   0   0   1   0   0   0   0   1   0   0  12 99 68 67 63 62 57 49 48 47 38 35 20 
   3   0   0   0   0   0   0   0   1   0   0   0   0   0   0   0   0   0   1   0   0   0   0   0   0   0   0   0   0   5   0  11 98 75 54 53 52 49 47 44 33 24 18 
   1   0   0   4   7   0   3   0   0   0   0   0   0   0   0   1   0   0  10   0   0   0   0   0   0   0   0   0   0   0   0  16 101 74 73 69 67 66 64 61 60 55 54 53 50 43 40 23 
   5   0   0   5   5   0   0   0   0   0   0   0   1   0   0   0   5   0   0   4   0   0   0   0   0   0   0   0   0   0   0  10 101 100 75 54 53 47 44 43 40 18 
   3   0   0   0   0   0   0   0   0   1   0   0   0   0   0   5   0   0   0   0   0   0   0   0   0   0   0   0   0   0   0  19 101 100 99 97 96 73 69 66 61 59 57 56 55 53 51 49 48 44 31 
   5   0   0   0   0   0   0   0   0   0   0   0   0   0   0   0   0   0   0   0   0   1   0   0   0   4   0   1   0   0   0  17 101 92 73 67 66 63 61 59 58 57 50 49 46 43 42 40 31 
  10   0   0   0   0   0   0   0   0   0   0   0   0   0   0   0   0   0   0   0   0   0   0   0   1   0   0   0   0   0   0  14 98 75 74 72 71 67 66 63 61 60 55 54 36 27 
   5   0   0   0   0   0   0   0   0  10   0   0   0   0   0   0   0   0   0   9   0   0   0   0   0   0   0   0   0   0   0  13 100 96 69 67 66 62 61 55 53 51 44 40 31 
   9   0   1   0   0   0   0   0   0   0   0   0   6   3   0   4   0   0   0   0   0   0   0   0   0   0   0   0   0   0   0  17 100 99 82 73 71 68 67 66 64 62 59 57 50 46 44 43 42 
   4   0   0   0   0   0   0   0   0   0   0   0   0   0   1   0   0   0   0   7   0   0   0   0   7   0   0   5   0   0   0  15 101 98 93 74 71 69 68 65 63 60 57 54 47 44 27 
  10   0   0   0   0   6   0   1   0   0   0   0   0   0   0   0   0   0   0   0   0   0   1   6   0   0   0   0   0   0   0  18 99 98 97 96 93 73 72 71 66 63 59 57 56 55 51 49 47 44 
   2   0   0   3   0   0   0   0   0   0   0   0   0   0   0   0   0   0   0   0   0   0   7   0   0   0   0   0   0   0   0  17 101 99 97 96 94 71 66 64 63 61 60 59 54 53 49 44 36 
   2   0   2   0   0   0   0   0   0   0   0   4   0   0   0   0   0   0   0   0   1   0   0   0   6   0   0   0   0   0   0  20 99 98 97 96 93 92 90 73 72 69 66 65 63 61 60 57 56 49 47 46 
   3   0   0   0   0   0   0   0   0   0   0   0   0   0   0   0   0   0   3   0   0   0   0   0   0   0   4   5   0   0   0  19 101 100 97 96 93 92 91 90 75 74 71 69 66 65 63 61 59 56 47 
  10   0   0   0   0   0   0   0   6   0   1   0   0   0   0   0   0   0   0   0   0   0   6   0   0   0   0   0   0   0  10  18 100 99 98 97 94 93 73 72 69 67 64 63 60 58 57 56 50 44 
   8   0   0   0   0   0   0   0   0   0   0   0   0   0   0   4   0   0   0   0   0   0   5   0   8   0   0   6   0   0   0  17 99 96 91 87 84 74 71 69 68 67 63 61 60 56 55 51 41 
   9   0   6   0   0   0   0   0   0   0   0   0   0   0   0   0   0   0   0   0   0   0   0   9   0   0   0   0   0   0   0  17 99 97 94 93 92 87 85 75 74 67 64 63 60 58 55 52 43 
  10   0   0   0   0   0   2   5   0   0   0   0   0   0   0   0   0   0   6   0   0   0   0   0   0   0   0   0   0   0   0  15 100 98 97 96 73 71 66 59 56 54 53 52 46 44 40 
   5   0   0   5   0   0   0   0   0   0   0   0   0   0   0   0   0   0   0   0   6   0   0   0   0   0   0   0   0   0   0  13 101 98 97 96 75 71 64 63 61 60 53 44 36 
   2   0   0   0   0   0   0   0   6   6   0   3   0   0   0   0   0   0   0   0   0   0   0   0   0   0   3   0   5   0   0  14 99 98 97 92 90 74 69 66 65 63 61 49 47 42 
   8   0   9   0   0   6   0   0   0   0   0   5   0   0   0   0   0   0   0   0   0   0   0   0   0   0   0   0   6   0   4  16 100 99 98 96 95 93 92 90 88 75 71 65 59 58 57 46 
   4   0   0   0   0   0   0   3   0   0   0   0   0   0   0   0  10   0   0   0   6   0   4   0   3   0   0   0   0   0   0  12 99 97 96 95 94 91 79 73 64 60 59 36 
   2   0   0   0  10   0   0   0   0   4   0   0   0   0   0   0   0   0   0   0   0   0   0   6   0   4   0   0   7   0   0  16 98 97 96 95 93 91 90 80 75 69 68 64 63 61 53 51 
   1   0   0   0   0   0   0   0   8   0   0   0   0   0   0   0   4   0   0   0   0   0   0   0   0   0   0   0   0   0   0  17 100 99 98 94 93 92 88 85 83 81 74 70 67 66 64 60 53 
   3   0   0   0   0   0   0   0   0   0   0   0   0   0   8   0   0   0   0   0   0   0   5   5   0   0   0   0   0   0   0  19 100 99 97 96 95 94 92 91 90 89 87 83 82 80 79 77 73 64 59 
   3   0   0   0   0   7   0   0   0   0   0   0   0   0   9   0   0   0   0   0   0   0   0   0   0   0   0   0   0   0   0  13 101 98 95 92 91 86 81 71 67 64 59 53 49 
   8   0   0   0   0   7   0   0   0   0   0   0   0   0   0   0   0   0   0   0   0   0   0   0   0   0   0   0   8   0   0  13 100 96 93 87 84 81 74 71 69 67 61 60 54 
   3   0   0   0   0   0   0   0   0   0   0   0   0   0   0   0   0   0   0   0  10   0   0   0   0   0   0   0   0   0   0  18 100 97 96 95 93 91 90 89 83 82 81 79 78 72 71 69 63 59 
   8   0   3   0   0   0   0  10   0   0   0   3   0   0   0   0   2   1   0   0   0   0   0   0   0   0   0   0   0   0   7  14 93 91 88 87 85 84 83 82 75 74 71 70 60 47 
   6   0   7   0   3   0   6   0   0   0  10   0   0   4   0   0   0   0   0   0   0   0   0   0   0   0   0   0   0   0   0  14 95 94 92 91 89 86 85 81 73 71 69 67 66 61 
   2   0  10   0   0   0   0   0   0   0   0   0   7   8   0   0   0   0   5   0   0   0   0   0   0   0   0   0   0   0   6  12 100 96 93 91 85 84 80 69 66 64 61 60 
   8   0   6   5   0   0   0   0   0   0   0   0   6   0   0   5   0   0   0   0   0   0   9   0   0   0   0   0   0   6   0  10 96 90 89 88 82 71 69 65 52 46 
   5   0   0   0   0   0   0   0   0   0   0   8   0   5   0   0   0   0   0   0   0   0   0   0   0   0   0   0   0   0   0   9 101 93 89 86 85 81 69 61 53 
   8   1   0   9   0   0   0   0   0   0   0   0   0   0   0   0   0   0   0   0   6   0   0   0   0   0   0   0   0   0   0  13 93 92 90 88 87 86 85 83 82 80 77 69 65 
   5   0   0   0   0   0   0   0   0   0   0   5   0   5   0   0   5   0   0   0   0   0   0   0   0   0   0   0   0   0   0  15 100 96 92 90 89 87 85 84 82 81 80 79 78 77 70 
   5   0   0   0   0   0   0   0   0   0   0   0   0   0   0   0   0   0   0   0   0   0   0   0   0   0   0   0   0   0   0  14 101 100 97 96 90 88 86 85 81 80 79 77 70 64 
   5   4   0   0   0   0   0   0   0   8   0   3   0   0   0   0   0   0   0   0   0   0   0   0   0   0   8   0   0   0   0   9 101 91 90 85 83 80 79 69 53 
   1   0   0   0   0   4   0   0   6   0   0   5   0   6   8   5   0   7   0   0   0   0   0   0   0   0   3   0   0   0   6  10 94 93 88 87 86 83 82 72 70 65 
   6   8   0   0   0   0   0   0   0   0   0   0   0   0   0   0  10   0   0   0   0   0   0   0   0   6   0   0   0   0   6  10 97 94 86 85 83 82 80 79 77 64 
   8   0   0   0   0   0   0   2   0   0   0   0   0   0   0   0   0   5   0   0   0   0   0   3   0   0   0   0   0   0   0   8 94 93 87 84 81 80 77 60 
   5   0   0   0   0   0   0   0   4   0   0   0   0   0   0   9   0   0   8   0   0   0   0   0   0   0   9   9   0   0   0   7 98 96 90 84 81 70 56 
   7   0   0   0   0   0   0   0   7   0   0   0   0   7   0   0   0   0   0   9   0   0   0   0   0   0   0   0   0   0   0   9 95 92 91 90 88 85 84 79 77 
   4   0   0   0   0   0   0   0   0   0   0   8   0   0   0   0   0   0   0   0   0   0   0   0   0   3   0   0   0   0   0   9 99 98 93 87 83 80 79 78 76 
   5   0   0   0   4   6   0   0   0   6   6   0   0   0   0   0   0   0   0   0   8   0   0   0   0   0   0   0   0   7   0   8 94 91 87 84 80 79 77 70 
   1   0   0   0   7   0  10   7   0   0   0   9   0   0   7   8   0   0   0   0   0   0   3   0   0   0   0   0   0   0   0   7 94 89 86 81 79 77 64 
   7   0   0   0   0   2   0  10   9   0   0   0   0   5   0   0   0   0   0   0   0   0   0   0   4   0   0   0   0   0   0   6 88 84 81 79 70 60 
  10  10   0   0   7   0   0   4   0   0   0   0   0   0   0   0   3   0   0  10   0   0   0   0   0   5   6   0   0   0   0   7 89 87 85 82 79 77 76 
   3   0   9   0   0   8   0   0   0   8   0   0   0   0   0   0   0   0   0   0   0   0   0   0   0   0   0   0   0   0   0   7 95 90 87 83 80 78 76 
   6   0   0   5   0   0   0   0   9   0   0   0   0   0   0   0   0   0   0   0   0   0   0   0   0   0   0   0   0   7   0   6 88 83 81 78 77 76 
   4   9   0   0   0   0   0   0   0   6   9   7   0   0   0   0   6   0   7   0   6   0   0   0   0   0   0   7   0   0   0   6 86 81 80 79 77 76 
   2   0   0   0  10   0   0   0   0   0   0   0   0   0   0   8   0   0   0   0   0   0   0   0   0   4   0   0   0  10   0   5 84 82 78 76 72 
   3   0   0   3   0   0   0   0   0   4   0   0   0   0   0  10   0   0   0   0   0   0   0   8   5   0   0   0   0   0   0   4 92 85 78 70 
   4   0   5   0   0   0   0   6   0   0   0   8   0  10   0   0   0   0   0   0   0   0   0   0   0   7   0   0   7   0   0   3 90 80 65 
  10   0   0   0   5   0   0   0   0   0   5   0   0   0   0   4   0   0   0   0   0   0   0   0   0   0   0   0   0   0   9   4 95 80 78 76 
   7   0   7   9   0   0   0   0   0   0   0   0   0   0   0   0   0   0   0   0   0   0  10   4   0   0   0   0   0   6   0   4 91 86 83 81 
   4   0   0   0   0   8   0   0   0   0   0   0   0   0   0   0   0   0   0   0   0   0   0   0   0   0   0   0   0   0   8   4 91 83 82 77 
   8   0   0   0   0   0   0   0   0   0   0   0   0   0   0   0   0   0   0   0   4   0   0   0   0   0   0   0   0   0   0   3 85 84 70 
   8   0   0   0   0   0   0   0   4   0   0   0   0   0   0   6   0   0   0   0   0   0   0   0  10   0   0   0   0   0   0   3 89 86 76 
   9   0   5   0   0   0   2   0   0   0   0   8   0   0   0   0   5   0   0   0   0   0   0   0   7   7   0   8   0   0   0   3 83 82 79 
   6   0   0   0   4   0   0   0   0   0   0   0   0   4   7   0   0   0   0   0   0   0   8   0   0   9   4   0   0   0   5   3 101 97 79 
   5   0   0   0   0   0   0   0   0   0   0   0   7   0   0   0   0   0   0   0   0   0   0   0   0   0   0   0   0   1   0   2 88 70 
   7   0   0   0   0   8   0   0   0   0   0   0   0   0   0   0   0   0   0   0   0   0   0   0   0   7   0   0   0   0   0   2 78 76 
   7   0   0   0   0   0   0   0   0   4   0   0   0   4   0   0   9   0   7   0   0   0   0   0   0   0   0   6   0   0   0   2 81 78 
   6   0   0   0   0   2   0   0   0   0   0   0   0   0   0   0   0   0   0   0   0   0   0   8   0   5   0   5   0   0   0   2 87 77 
   2   0   0   9   0   0   0   0   0   5   0   0   0   0   0   0   0   0   0   0   0   0   0   0   0   0   0   0   0   0   0   2 80 76 
   3   0   0   7   0   0   0   0   0   0   0   0   0   0   0   0   0   0   0   0   0  10   0   0   0   0   0   0   0   5   0   2 92 77 
   1   0   0   0   7   0   0   8   7   0   0   0   0   0   0   0   0   0   0   0   0   0   0   0   0   0   7   0   0   0   5   1 70 
   5   0   0   0   0   0   0   0   0   0   0   0   0   6   0   0   0   0   0   0   8   0   0   7   0   0   0   0   0   0   0   1 76 
   7   0   0   0   0   0   0   0   0   0   0   0   6   0   0   0   0   0   0   0   0   0   0   0   0  10   0   0   0   0   0   1 77 
   8   0   0   6   0   0   7   0   0   0   0   3   0   0   0   0   0   0   0   0   0   6   0   0   0   0   0   4   0   0   5   1 77 
   1   0   0   0   0   0   0   0   4   0   0   0   0   0   0   0   0   8   7   0   0   0   9   0   0   0   6   0   0   0   0   1 88 
   4   0   7  10   0   0   9   0   0   0   5   0   0   0   0   0   0   0   0   0   0   5   0   0   0   7   0   0   5   0   0   1 76 
   1   0   6   0   0  10   0   6   0   0   0   6   0   0   0   0   0   6   0   0   0   0   0   0   0   0   0   0   7   3   0   1 77 
   6   0   0   0   0   0   7   0   0   0   0   0   0   9   0   0   4   0   0   0   0   5   0   0   0   0   0   5   0   0   0   1 102
   6   0   0   0   0   4   6   0   0   7   0   0   5   0   0   0   0   0   0   0   0   0   0   0   8   0   0   0   0   0   0   1 102
   6   0   0   0   0   0   0   0   0   6   0   0   0   0   5   5   5   0   0   5   0   0   0   0   0   0   0   0   0   3   0   1 102
   7   0   0   0   0   0   0   0   0   7   0   0   0   0   0   0   0   0   8   0   0   0   0   0   0   0   0   0   0   0   0   1 102
   6   0   0   0   0   0   0   0   0   6   0   0  10   0   0   0   0   0   0   0   0   0   0   0   0   0   0   0   0  10   0   1 102
   9   0   8   0   6   0   0   0   0   0   0   0   0   0   0   0   0   0   0   0   0   0   0   0   0   0   0   0   0   0   0   1 102
   1   0   0   0   0   0   0   0   0   0   0   0   0   0   0   0   0   0   0   0   0   0   0   3   0   0   0   0   0   0   6   1 102
  10   0   0   0   0   0   0   0   0   9   0   0   0   0   0   0   0   0   0   0   0   0   0   0   6   0   0   0   6   0   0   1 102
   3   0   0   0   0   0   0   0   0   0   0   0   0   0   8   0   0   0   0   0   0   0   0   0   0   6  10   0   0   0   0   1 102
  10   0   0   0   7   0   0   6   0   0   0   0   0   0   0   0   0   0   0   0   4   0   0   0   0   0   0   0   0   0   0   1 102
   4   0   0   0   0   0   4   0   0   0   0   0   0   0   0   0   0   0   6   0   0   0   0   0   0   0   0   9   0   0   0   1 102
   1   0   0   0   0   0   0   0   0   0   0  10   0  10   0   0   0   0   0   0   0   0   0   0   0   0   0   0   0   8   0   1 102
   3   0   0   3   6   8   0   0   0   0   0   0   0   0   0   0   0   9   0   0   0   0   0   0   0   0   0   0   0   0   0   1 102
   1   0   0   0   0   9   0   0   0   0   0   0   0   0   0   0   0   0   0   0   0   0   0   0   0   0   0   0   0   0   0   1 102
   6   0   0   0   0   0   0   0   0   0   0   0   0   5   0  10   0   0   0   0   7   0   0   0   0   0   0   9   0   0   0   1 102
   2   0   0   9   0   0   0   0   0   0   0   0   0   0   0   0   0   0   0   0   0   0   0   0   7   0   0   0   0   4   0   1 102
   2   0   5   0   0   0   0   0   0   0   0   0   0   0   2   0   7   0   0   5   0   0   0   0   0   0   0   0   0   0   0   1 102
  10   0   0   0   0   0   0   0   0   0   0   0   0   0   0   0   0   0   0   0   0   0   0  10   6   0   0   0   0   0   0   1 102
   9   0   0   0   0   0  10   0   0   0   0   0   0   0   0   0   0   0   4   0   0   0   0   0   6   0   0   4   0   0   0   1 102
   3   0   5   0   6   0   0   0   0   5   0   0   0   0   0   0  10   0   0   5   0   0   0   0   0   0   0   0   7   6   0   1 102
   7   4   6   0   0   0   0   0   0   0   0   0   0   0   0   0   0   0   0   0   0   7   5   0   0   0   0   0   6   0   0   1 102
   2   0   0   0   0   0   0   0   8   0   0   9   0   5   0   0   0   0   0   7   0   0   0   0   0   0   0   0   0   9   0   1 102
  10   0   7   0   0   0   0  10   0   0   0   0   0   0   0   0   0   0   0   0   0   5   0   0   0   0   0   0   0   6   0   1 102
   4   0   0   0   0   0   0   0   0   0   0   0   0   0   6   0  10   0   0   0   0   0   0   0   0   0   0   0   4   0   0   1 102
   4   0   0   0   0   0   4   0   0   0   0   4   0   0   5   0   3   0   0   3   0   9   0   8   0   0   0   0   0   0   0   1 102
   4   0   0   4   0   4   8   0   5   0   0   0   0   0   0   0   0   0   0   0   0   0   0   0   0   0   0   7   9   0   0   1 102
   0   0   0   0   0   0   0   0   0   0   0   0   0   0   0   0   0   0   0   0   0   0   0   0   0   0   0   0   0   0   0   0 
